26542
111,216,249,320,426,435,454,455,473,564,599,732,881,935,990,991,1143,1248,1299,1338,1457,1458,1474,1505,1723,1868,1921,2059,2064,2117,2146,2160,2322,2386,2422,2504,2578,2602,2654,2744,2755,2777,2966,3032,3077,3211,3215,3216,3300,3304,3325,3450,3517,3562,3584,3624,3643,3751,3798,3849,3933,3936,4089,4129,4148,4226,4340,4379,4495,4512,4554,4582,4626,4648,4690,4806,4874,4892
